\ Model chvatal
\ LP format - for model browsing. Use MPS format to capture full model detail.
Maximize
  21.3 a(C) + 6.3 a(x(0,1)) + 13.3 a(x(0,2)) + 20.3 a(x(0,0))
   + 11.3 a(x(1,0)) + 7.3 a(x(1,1)) + 14.3 a(x(1,2)) + 6.3 a(x(2,1))
   + 13.3 a(x(2,2)) + 19.3 a(x(2,0)) + 0.7481135544006483 a(y(0,1,0))
   + 0.2518864455993517 a(y(1,0,0)) + 0.8135392584974562 a(y(0,1,1))
   + 0.1864607415025438 a(y(1,0,1)) + 0.5084745762711864 a(y(0,1,2))
   + 0.4915254237288136 a(y(1,0,2)) + 0.4950788860017715 a(y(0,2,0))
   + 0.5049211139982285 a(y(2,0,0)) + 0.8053393969274033 a(y(0,2,1))
   + 0.1946606030725967 a(y(2,0,1)) + 0.8055555555555556 a(y(0,2,2))
   + 0.1944444444444444 a(y(2,0,2)) + 0.4915254237288136 a(y(1,2,0))
   + 0.5084745762711864 a(y(2,1,0)) + 0.8529411764705882 a(y(1,2,1))
   + 0.1470588235294118 a(y(2,1,1)) + 0.7837837837837838 a(y(1,2,2))
   + 0.2162162162162162 a(y(2,1,2)) + 6 a(v(0,1,0)p) + 10 a(v(1,0,0)n)
   + 440 a(u(1,0,0)p) + 440 a(u(1,0,0)n) + 5 a(v(0,1,1)n) + 6 a(v(1,0,1)n)
   + 0.2778659321920145 a(u(0,1,1)p) + 8 a(v(0,1,2)n) + 6 a(v(1,0,2)n)
   + 10.8135593220339 a(u(0,1,2)p) + 440 a(u(1,0,2)p) + 440 a(u(1,0,2)n)
   + a(v(0,2,0)n) + 2 a(v(2,0,0)n) + 0.9073729251615461 a(u(0,2,0)p)
   + 12.6617813750177 a(u(2,0,0)p) + 7 a(v(0,2,1)n) + 7 a(v(2,0,1)n)
   + 0.1511302565423662 a(u(0,2,1)p) + 0.00778171061348232 a(u(2,0,1)p)
   + 6 a(v(0,2,2)n) + 7 a(v(2,0,2)n) + 0.9899399399399726 a(u(0,2,2)p)
   + 440 a(u(2,0,2)p) + 440 a(u(2,0,2)n) + 10 a(v(1,2,0)n) + 5 a(v(2,1,0)p)
   + 17.20338983050847 a(u(2,1,0)p) + 6 a(v(1,2,1)n) + 5 a(v(2,1,1)n)
   + 440 a(u(2,1,1)p) + 440 a(u(2,1,1)n) + 5 a(v(1,2,2)n) + 8 a(v(2,1,2)n)
   + 440 a(u(1,2,2)p) + 440 a(u(1,2,2)n) + 440 a(u(2,1,2)p)
   + 440 a(u(2,1,2)n) - a0
Subject To
 f_C: - u(makespan(0)) - u(makespan(1)) - u(makespan(2)) - a(C) - f(C)
   = -0
 f_x(0,1): u(ord(0,1)) - u(MCLinV(0,1,1)) + u(MCLinV(1,0,1))
   - u(MCLinV(0,2,1)) + u(MCLinV(2,0,1)) - 0.25 u(cut_clique(012,1))
   - 7 u(cut_basic_best(012,1)) - 7 u(cut_two_jobs(0,2,1))
   - 7 u(cut_basic_plus_epsilon_best(02,1,1))
   - 7 u(cut_basic_plus_epsilon_best(01,1,2)) - a(x(0,1)) - f(x(0,1)) = -0
 f_x(0,2): - u(ord(0,1)) + u(ord(0,2)) - u(MCLinV(0,1,2))
   + u(MCLinV(1,0,2)) - u(MCLinV(0,2,2)) + u(MCLinV(2,0,2))
   - 7 u(cut_basic_best(012,2)) - 7 u(cut_two_jobs(0,1,2))
   - 7 u(cut_basic_plus_epsilon_best(02,2,1))
   - 7 u(cut_basic_plus_epsilon_best(01,2,2)) - a(x(0,2)) - f(x(0,2)) = -0
 f_x(0,0): - u(ord(0,2)) - u(MCLinV(0,1,0)) + u(MCLinV(1,0,0))
   - u(MCLinV(0,2,0)) + u(MCLinV(2,0,0)) + u(makespan(0))
   - u(cut_basic_best(02,0)) - 2 u(cut_two_jobs(0,2,0)) - a(x(0,0))
   - f(x(0,0)) = -0
 f_x(1,0): - u(ord(1,1)) + u(ord(1,2)) + u(MCLinV(0,1,0))
   - u(MCLinV(1,0,0)) - u(MCLinV(1,2,0)) + u(MCLinV(2,1,0)) - a(x(1,0))
   - f(x(1,0)) = -0
 f_x(1,1): u(ord(1,1)) + u(MCLinV(0,1,1)) - u(MCLinV(1,0,1))
   - u(MCLinV(1,2,1)) + u(MCLinV(2,1,1)) - 0.14286 u(cut_clique(012,1))
   - 4 u(cut_basic_best(012,1)) - 4 u(cut_basic_plus_epsilon_best(12,1,0))
   - 4 u(cut_basic_plus_epsilon_best(01,1,2)) - a(x(1,1)) - f(x(1,1)) = -0
 f_x(1,2): - u(ord(1,2)) + u(MCLinV(0,1,2)) - u(MCLinV(1,0,2))
   - u(MCLinV(1,2,2)) + u(MCLinV(2,1,2)) + u(makespan(1))
   - 7 u(cut_basic_best(012,2)) - 7 u(cut_two_jobs(0,1,2))
   - 7 u(cut_basic_plus_epsilon_best(12,2,0))
   - 7 u(cut_basic_plus_epsilon_best(01,2,2)) - a(x(1,2)) - f(x(1,2)) = -0
 f_x(2,1): u(ord(2,1)) + u(MCLinV(0,2,1)) - u(MCLinV(2,0,1))
   + u(MCLinV(1,2,1)) - u(MCLinV(2,1,1)) - 7 u(cut_basic_best(012,1))
   - 7 u(cut_two_jobs(0,2,1)) - 7 u(cut_basic_plus_epsilon_best(12,1,0))
   - 7 u(cut_basic_plus_epsilon_best(02,1,1)) - a(x(2,1)) - f(x(2,1)) = -0
 f_x(2,2): - u(ord(2,1)) + u(ord(2,2)) + u(MCLinV(0,2,2))
   - u(MCLinV(2,0,2)) + u(MCLinV(1,2,2)) - u(MCLinV(2,1,2))
   - 6 u(cut_basic_best(012,2)) - 6 u(cut_basic_plus_epsilon_best(12,2,0))
   - 6 u(cut_basic_plus_epsilon_best(02,2,1)) - a(x(2,2)) - f(x(2,2)) = -0
 f_x(2,0): - u(ord(2,2)) + u(MCLinV(0,2,0)) - u(MCLinV(2,0,0))
   + u(MCLinV(1,2,0)) - u(MCLinV(2,1,0)) + u(makespan(2))
   - 2 u(cut_basic_best(02,0)) - u(cut_two_jobs(0,2,0)) - a(x(2,0))
   - f(x(2,0)) = -0
 f_y(0,1,0): u(triangle2(0,1,0)) - 40 u(MCLin7(1,0,0))
   + 19 u(MCLin8(1,0,0)) - 19 u(MCLin9(1,0,0)) + 40 u(MCLin10(1,0,0))
   - a(y(0,1,0)) - f(y(0,1,0)) = -0
 f_y(1,0,0): u(triangle2(0,1,0)) - 23 u(MCLin2(0,1,0))
   + 36 u(MCLin3(0,1,0)) - 36 u(MCLin4(0,1,0)) + 23 u(MCLin5(0,1,0))
   - a(y(1,0,0)) - f(y(1,0,0)) = -0
 f_y(0,1,1): u(triangle2(0,1,1)) - 36 u(MCLin7(1,0,1))
   + 23 u(MCLin8(1,0,1)) - 23 u(MCLin9(1,0,1)) + 36 u(MCLin10(1,0,1))
   - a(y(0,1,1)) - f(y(0,1,1)) = -0
 f_y(1,0,1): u(triangle2(0,1,1)) - 34 u(MCLin2(0,1,1))
   + 25 u(MCLin3(0,1,1)) - 25 u(MCLin4(0,1,1)) + 34 u(MCLin5(0,1,1))
   - a(y(1,0,1)) - f(y(1,0,1)) = -0
 f_y(0,1,2): u(triangle2(0,1,2)) - 36 u(MCLin7(1,0,2))
   + 23 u(MCLin8(1,0,2)) - 23 u(MCLin9(1,0,2)) + 36 u(MCLin10(1,0,2))
   - a(y(0,1,2)) - f(y(0,1,2)) = -0
 f_y(1,0,2): u(triangle2(0,1,2)) - 37 u(MCLin2(0,1,2))
   + 22 u(MCLin3(0,1,2)) - 22 u(MCLin4(0,1,2)) + 37 u(MCLin5(0,1,2))
   - a(y(1,0,2)) - f(y(1,0,2)) = -0
 f_y(0,2,0): u(triangle2(0,2,0)) - 31 u(MCLin7(2,0,0))
   + 27 u(MCLin8(2,0,0)) - 27 u(MCLin9(2,0,0)) + 31 u(MCLin10(2,0,0))
   - a(y(0,2,0)) - f(y(0,2,0)) = -0
 f_y(2,0,0): u(triangle2(0,2,0)) - 30 u(MCLin2(0,2,0))
   + 28 u(MCLin3(0,2,0)) - 28 u(MCLin4(0,2,0)) + 30 u(MCLin5(0,2,0))
   - a(y(2,0,0)) - f(y(2,0,0)) = -0
 f_y(0,2,1): u(triangle2(0,2,1)) - 36 u(MCLin7(2,0,1))
   + 22 u(MCLin8(2,0,1)) - 22 u(MCLin9(2,0,1)) + 36 u(MCLin10(2,0,1))
   - a(y(0,2,1)) - f(y(0,2,1)) = -0
 f_y(2,0,1): u(triangle2(0,2,1)) - 36 u(MCLin2(0,2,1))
   + 22 u(MCLin3(0,2,1)) - 22 u(MCLin4(0,2,1)) + 36 u(MCLin5(0,2,1))
   - a(y(2,0,1)) - f(y(2,0,1)) = -0
 f_y(0,2,2): u(triangle2(0,2,2)) - 36 u(MCLin7(2,0,2))
   + 22 u(MCLin8(2,0,2)) - 22 u(MCLin9(2,0,2)) + 36 u(MCLin10(2,0,2))
   - a(y(0,2,2)) - f(y(0,2,2)) = -0
 f_y(2,0,2): u(triangle2(0,2,2)) - 35 u(MCLin2(0,2,2))
   + 23 u(MCLin3(0,2,2)) - 23 u(MCLin4(0,2,2)) + 35 u(MCLin5(0,2,2))
   - a(y(2,0,2)) - f(y(2,0,2)) = -0
 f_y(1,2,0): u(triangle2(1,2,0)) - 24 u(MCLin7(2,1,0))
   + 35 u(MCLin8(2,1,0)) - 35 u(MCLin9(2,1,0)) + 24 u(MCLin10(2,1,0))
   - a(y(1,2,0)) - f(y(1,2,0)) = -0
 f_y(2,1,0): u(triangle2(1,2,0)) - 40 u(MCLin2(1,2,0))
   + 19 u(MCLin3(1,2,0)) - 19 u(MCLin4(1,2,0)) + 40 u(MCLin5(1,2,0))
   - a(y(2,1,0)) - f(y(2,1,0)) = -0
 f_y(1,2,1): u(triangle2(1,2,1)) - 34 u(MCLin7(2,1,1))
   + 25 u(MCLin8(2,1,1)) - 25 u(MCLin9(2,1,1)) + 34 u(MCLin10(2,1,1))
   - a(y(1,2,1)) - f(y(1,2,1)) = -0
 f_y(2,1,1): u(triangle2(1,2,1)) - 36 u(MCLin2(1,2,1))
   + 23 u(MCLin3(1,2,1)) - 23 u(MCLin4(1,2,1)) + 36 u(MCLin5(1,2,1))
   - a(y(2,1,1)) - f(y(2,1,1)) = -0
 f_y(1,2,2): u(triangle2(1,2,2)) - 37 u(MCLin7(2,1,2))
   + 22 u(MCLin8(2,1,2)) - 22 u(MCLin9(2,1,2)) + 37 u(MCLin10(2,1,2))
   - a(y(1,2,2)) - f(y(1,2,2)) = -0
 f_y(2,1,2): u(triangle2(1,2,2)) - 35 u(MCLin2(1,2,2))
   + 24 u(MCLin3(1,2,2)) - 24 u(MCLin4(1,2,2)) + 35 u(MCLin5(1,2,2))
   - a(y(2,1,2)) - f(y(2,1,2)) = -0
 f_v(0,1,0)p: u(MCLinV(0,1,0)) + u(MCLin3(0,1,0)) - u(MCLin5(0,1,0))
   - a(v(0,1,0)p) - f(v(0,1,0)p) = -0
 f_v(0,1,0)n: - u(MCLinV(0,1,0)) - u(MCLin3(0,1,0)) + u(MCLin5(0,1,0))
   - a(v(0,1,0)n) - f(v(0,1,0)n) = -0
 f_v(1,0,0)p: u(MCLinV(1,0,0)) + u(MCLin8(1,0,0)) - u(MCLin10(1,0,0))
   - a(v(1,0,0)p) - f(v(1,0,0)p) = -0
 f_v(1,0,0)n: - u(MCLinV(1,0,0)) - u(MCLin8(1,0,0)) + u(MCLin10(1,0,0))
   - a(v(1,0,0)n) - f(v(1,0,0)n) = -0
 f_u(0,1,0)p: - u(MCLin1(0,1,0)) - u(MCLin2(0,1,0)) - u(MCLin3(0,1,0))
   + u(MCLin4(0,1,0)) + u(MCLin5(0,1,0)) - a(u(0,1,0)p) - f(u(0,1,0)p)
   = -0
 f_u(0,1,0)n: u(MCLin1(0,1,0)) + u(MCLin2(0,1,0)) + u(MCLin3(0,1,0))
   - u(MCLin4(0,1,0)) - u(MCLin5(0,1,0)) - a(u(0,1,0)n) - f(u(0,1,0)n)
   = -0
 f_u(1,0,0)p: - u(MCLin6(1,0,0)) - u(MCLin7(1,0,0)) - u(MCLin8(1,0,0))
   + u(MCLin9(1,0,0)) + u(MCLin10(1,0,0)) - a(u(1,0,0)p) - f(u(1,0,0)p)
   = -0
 f_u(1,0,0)n: u(MCLin6(1,0,0)) + u(MCLin7(1,0,0)) + u(MCLin8(1,0,0))
   - u(MCLin9(1,0,0)) - u(MCLin10(1,0,0)) - a(u(1,0,0)n) - f(u(1,0,0)n)
   = -0
 f_v(0,1,1)p: u(MCLinV(0,1,1)) + u(MCLin3(0,1,1)) - u(MCLin5(0,1,1))
   - a(v(0,1,1)p) - f(v(0,1,1)p) = -0
 f_v(0,1,1)n: - u(MCLinV(0,1,1)) - u(MCLin3(0,1,1)) + u(MCLin5(0,1,1))
   - a(v(0,1,1)n) - f(v(0,1,1)n) = -0
 f_v(1,0,1)p: u(MCLinV(1,0,1)) + u(MCLin8(1,0,1)) - u(MCLin10(1,0,1))
   - a(v(1,0,1)p) - f(v(1,0,1)p) = -0
 f_v(1,0,1)n: - u(MCLinV(1,0,1)) - u(MCLin8(1,0,1)) + u(MCLin10(1,0,1))
   - a(v(1,0,1)n) - f(v(1,0,1)n) = -0
 f_u(0,1,1)p: - u(MCLin1(0,1,1)) - u(MCLin2(0,1,1)) - u(MCLin3(0,1,1))
   + u(MCLin4(0,1,1)) + u(MCLin5(0,1,1)) - a(u(0,1,1)p) - f(u(0,1,1)p)
   = -0
 f_u(0,1,1)n: u(MCLin1(0,1,1)) + u(MCLin2(0,1,1)) + u(MCLin3(0,1,1))
   - u(MCLin4(0,1,1)) - u(MCLin5(0,1,1)) - a(u(0,1,1)n) - f(u(0,1,1)n)
   = -0
 f_u(1,0,1)p: - u(MCLin6(1,0,1)) - u(MCLin7(1,0,1)) - u(MCLin8(1,0,1))
   + u(MCLin9(1,0,1)) + u(MCLin10(1,0,1)) - a(u(1,0,1)p) - f(u(1,0,1)p)
   = -0
 f_u(1,0,1)n: u(MCLin6(1,0,1)) + u(MCLin7(1,0,1)) + u(MCLin8(1,0,1))
   - u(MCLin9(1,0,1)) - u(MCLin10(1,0,1)) - a(u(1,0,1)n) - f(u(1,0,1)n)
   = -0
 f_v(0,1,2)p: u(MCLinV(0,1,2)) + u(MCLin3(0,1,2)) - u(MCLin5(0,1,2))
   - a(v(0,1,2)p) - f(v(0,1,2)p) = -0
 f_v(0,1,2)n: - u(MCLinV(0,1,2)) - u(MCLin3(0,1,2)) + u(MCLin5(0,1,2))
   - a(v(0,1,2)n) - f(v(0,1,2)n) = -0
 f_v(1,0,2)p: u(MCLinV(1,0,2)) + u(MCLin8(1,0,2)) - u(MCLin10(1,0,2))
   - a(v(1,0,2)p) - f(v(1,0,2)p) = -0
 f_v(1,0,2)n: - u(MCLinV(1,0,2)) - u(MCLin8(1,0,2)) + u(MCLin10(1,0,2))
   - a(v(1,0,2)n) - f(v(1,0,2)n) = -0
 f_u(0,1,2)p: - u(MCLin1(0,1,2)) - u(MCLin2(0,1,2)) - u(MCLin3(0,1,2))
   + u(MCLin4(0,1,2)) + u(MCLin5(0,1,2)) - a(u(0,1,2)p) - f(u(0,1,2)p)
   = -0
 f_u(0,1,2)n: u(MCLin1(0,1,2)) + u(MCLin2(0,1,2)) + u(MCLin3(0,1,2))
   - u(MCLin4(0,1,2)) - u(MCLin5(0,1,2)) - a(u(0,1,2)n) - f(u(0,1,2)n)
   = -0
 f_u(1,0,2)p: - u(MCLin6(1,0,2)) - u(MCLin7(1,0,2)) - u(MCLin8(1,0,2))
   + u(MCLin9(1,0,2)) + u(MCLin10(1,0,2)) - a(u(1,0,2)p) - f(u(1,0,2)p)
   = -0
 f_u(1,0,2)n: u(MCLin6(1,0,2)) + u(MCLin7(1,0,2)) + u(MCLin8(1,0,2))
   - u(MCLin9(1,0,2)) - u(MCLin10(1,0,2)) - a(u(1,0,2)n) - f(u(1,0,2)n)
   = -0
 f_v(0,2,0)p: u(MCLinV(0,2,0)) + u(MCLin3(0,2,0)) - u(MCLin5(0,2,0))
   - a(v(0,2,0)p) - f(v(0,2,0)p) = -0
 f_v(0,2,0)n: - u(MCLinV(0,2,0)) - u(MCLin3(0,2,0)) + u(MCLin5(0,2,0))
   - a(v(0,2,0)n) - f(v(0,2,0)n) = -0
 f_v(2,0,0)p: u(MCLinV(2,0,0)) + u(MCLin8(2,0,0)) - u(MCLin10(2,0,0))
   - a(v(2,0,0)p) - f(v(2,0,0)p) = -0
 f_v(2,0,0)n: - u(MCLinV(2,0,0)) - u(MCLin8(2,0,0)) + u(MCLin10(2,0,0))
   - a(v(2,0,0)n) - f(v(2,0,0)n) = -0
 f_u(0,2,0)p: - u(MCLin1(0,2,0)) - u(MCLin2(0,2,0)) - u(MCLin3(0,2,0))
   + u(MCLin4(0,2,0)) + u(MCLin5(0,2,0)) - a(u(0,2,0)p) - f(u(0,2,0)p)
   = -0
 f_u(0,2,0)n: u(MCLin1(0,2,0)) + u(MCLin2(0,2,0)) + u(MCLin3(0,2,0))
   - u(MCLin4(0,2,0)) - u(MCLin5(0,2,0)) - a(u(0,2,0)n) - f(u(0,2,0)n)
   = -0
 f_u(2,0,0)p: - u(MCLin6(2,0,0)) - u(MCLin7(2,0,0)) - u(MCLin8(2,0,0))
   + u(MCLin9(2,0,0)) + u(MCLin10(2,0,0)) - a(u(2,0,0)p) - f(u(2,0,0)p)
   = -0
 f_u(2,0,0)n: u(MCLin6(2,0,0)) + u(MCLin7(2,0,0)) + u(MCLin8(2,0,0))
   - u(MCLin9(2,0,0)) - u(MCLin10(2,0,0)) - a(u(2,0,0)n) - f(u(2,0,0)n)
   = -0
 f_v(0,2,1)p: u(MCLinV(0,2,1)) + u(MCLin3(0,2,1)) - u(MCLin5(0,2,1))
   - a(v(0,2,1)p) - f(v(0,2,1)p) = -0
 f_v(0,2,1)n: - u(MCLinV(0,2,1)) - u(MCLin3(0,2,1)) + u(MCLin5(0,2,1))
   - a(v(0,2,1)n) - f(v(0,2,1)n) = -0
 f_v(2,0,1)p: u(MCLinV(2,0,1)) + u(MCLin8(2,0,1)) - u(MCLin10(2,0,1))
   - a(v(2,0,1)p) - f(v(2,0,1)p) = -0
 f_v(2,0,1)n: - u(MCLinV(2,0,1)) - u(MCLin8(2,0,1)) + u(MCLin10(2,0,1))
   - a(v(2,0,1)n) - f(v(2,0,1)n) = -0
 f_u(0,2,1)p: - u(MCLin1(0,2,1)) - u(MCLin2(0,2,1)) - u(MCLin3(0,2,1))
   + u(MCLin4(0,2,1)) + u(MCLin5(0,2,1)) - a(u(0,2,1)p) - f(u(0,2,1)p)
   = -0
 f_u(0,2,1)n: u(MCLin1(0,2,1)) + u(MCLin2(0,2,1)) + u(MCLin3(0,2,1))
   - u(MCLin4(0,2,1)) - u(MCLin5(0,2,1)) - a(u(0,2,1)n) - f(u(0,2,1)n)
   = -0
 f_u(2,0,1)p: - u(MCLin6(2,0,1)) - u(MCLin7(2,0,1)) - u(MCLin8(2,0,1))
   + u(MCLin9(2,0,1)) + u(MCLin10(2,0,1)) - a(u(2,0,1)p) - f(u(2,0,1)p)
   = -0
 f_u(2,0,1)n: u(MCLin6(2,0,1)) + u(MCLin7(2,0,1)) + u(MCLin8(2,0,1))
   - u(MCLin9(2,0,1)) - u(MCLin10(2,0,1)) - a(u(2,0,1)n) - f(u(2,0,1)n)
   = -0
 f_v(0,2,2)p: u(MCLinV(0,2,2)) + u(MCLin3(0,2,2)) - u(MCLin5(0,2,2))
   - a(v(0,2,2)p) - f(v(0,2,2)p) = -0
 f_v(0,2,2)n: - u(MCLinV(0,2,2)) - u(MCLin3(0,2,2)) + u(MCLin5(0,2,2))
   - a(v(0,2,2)n) - f(v(0,2,2)n) = -0
 f_v(2,0,2)p: u(MCLinV(2,0,2)) + u(MCLin8(2,0,2)) - u(MCLin10(2,0,2))
   - a(v(2,0,2)p) - f(v(2,0,2)p) = -0
 f_v(2,0,2)n: - u(MCLinV(2,0,2)) - u(MCLin8(2,0,2)) + u(MCLin10(2,0,2))
   - a(v(2,0,2)n) - f(v(2,0,2)n) = -0
 f_u(0,2,2)p: - u(MCLin1(0,2,2)) - u(MCLin2(0,2,2)) - u(MCLin3(0,2,2))
   + u(MCLin4(0,2,2)) + u(MCLin5(0,2,2)) - a(u(0,2,2)p) - f(u(0,2,2)p)
   = -0
 f_u(0,2,2)n: u(MCLin1(0,2,2)) + u(MCLin2(0,2,2)) + u(MCLin3(0,2,2))
   - u(MCLin4(0,2,2)) - u(MCLin5(0,2,2)) - a(u(0,2,2)n) - f(u(0,2,2)n)
   = -0
 f_u(2,0,2)p: - u(MCLin6(2,0,2)) - u(MCLin7(2,0,2)) - u(MCLin8(2,0,2))
   + u(MCLin9(2,0,2)) + u(MCLin10(2,0,2)) - a(u(2,0,2)p) - f(u(2,0,2)p)
   = -0
 f_u(2,0,2)n: u(MCLin6(2,0,2)) + u(MCLin7(2,0,2)) + u(MCLin8(2,0,2))
   - u(MCLin9(2,0,2)) - u(MCLin10(2,0,2)) - a(u(2,0,2)n) - f(u(2,0,2)n)
   = -0
 f_v(1,2,0)p: u(MCLinV(1,2,0)) + u(MCLin3(1,2,0)) - u(MCLin5(1,2,0))
   - a(v(1,2,0)p) - f(v(1,2,0)p) = -0
 f_v(1,2,0)n: - u(MCLinV(1,2,0)) - u(MCLin3(1,2,0)) + u(MCLin5(1,2,0))
   - a(v(1,2,0)n) - f(v(1,2,0)n) = -0
 f_v(2,1,0)p: u(MCLinV(2,1,0)) + u(MCLin8(2,1,0)) - u(MCLin10(2,1,0))
   - a(v(2,1,0)p) - f(v(2,1,0)p) = -0
 f_v(2,1,0)n: - u(MCLinV(2,1,0)) - u(MCLin8(2,1,0)) + u(MCLin10(2,1,0))
   - a(v(2,1,0)n) - f(v(2,1,0)n) = -0
 f_u(1,2,0)p: - u(MCLin1(1,2,0)) - u(MCLin2(1,2,0)) - u(MCLin3(1,2,0))
   + u(MCLin4(1,2,0)) + u(MCLin5(1,2,0)) - a(u(1,2,0)p) - f(u(1,2,0)p)
   = -0
 f_u(1,2,0)n: u(MCLin1(1,2,0)) + u(MCLin2(1,2,0)) + u(MCLin3(1,2,0))
   - u(MCLin4(1,2,0)) - u(MCLin5(1,2,0)) - a(u(1,2,0)n) - f(u(1,2,0)n)
   = -0
 f_u(2,1,0)p: - u(MCLin6(2,1,0)) - u(MCLin7(2,1,0)) - u(MCLin8(2,1,0))
   + u(MCLin9(2,1,0)) + u(MCLin10(2,1,0)) - a(u(2,1,0)p) - f(u(2,1,0)p)
   = -0
 f_u(2,1,0)n: u(MCLin6(2,1,0)) + u(MCLin7(2,1,0)) + u(MCLin8(2,1,0))
   - u(MCLin9(2,1,0)) - u(MCLin10(2,1,0)) - a(u(2,1,0)n) - f(u(2,1,0)n)
   = -0
 f_v(1,2,1)p: u(MCLinV(1,2,1)) + u(MCLin3(1,2,1)) - u(MCLin5(1,2,1))
   - a(v(1,2,1)p) - f(v(1,2,1)p) = -0
 f_v(1,2,1)n: - u(MCLinV(1,2,1)) - u(MCLin3(1,2,1)) + u(MCLin5(1,2,1))
   - a(v(1,2,1)n) - f(v(1,2,1)n) = -0
 f_v(2,1,1)p: u(MCLinV(2,1,1)) + u(MCLin8(2,1,1)) - u(MCLin10(2,1,1))
   - a(v(2,1,1)p) - f(v(2,1,1)p) = -0
 f_v(2,1,1)n: - u(MCLinV(2,1,1)) - u(MCLin8(2,1,1)) + u(MCLin10(2,1,1))
   - a(v(2,1,1)n) - f(v(2,1,1)n) = -0
 f_u(1,2,1)p: - u(MCLin1(1,2,1)) - u(MCLin2(1,2,1)) - u(MCLin3(1,2,1))
   + u(MCLin4(1,2,1)) + u(MCLin5(1,2,1)) - a(u(1,2,1)p) - f(u(1,2,1)p)
   = -0
 f_u(1,2,1)n: u(MCLin1(1,2,1)) + u(MCLin2(1,2,1)) + u(MCLin3(1,2,1))
   - u(MCLin4(1,2,1)) - u(MCLin5(1,2,1)) - a(u(1,2,1)n) - f(u(1,2,1)n)
   = -0
 f_u(2,1,1)p: - u(MCLin6(2,1,1)) - u(MCLin7(2,1,1)) - u(MCLin8(2,1,1))
   + u(MCLin9(2,1,1)) + u(MCLin10(2,1,1)) - a(u(2,1,1)p) - f(u(2,1,1)p)
   = -0
 f_u(2,1,1)n: u(MCLin6(2,1,1)) + u(MCLin7(2,1,1)) + u(MCLin8(2,1,1))
   - u(MCLin9(2,1,1)) - u(MCLin10(2,1,1)) - a(u(2,1,1)n) - f(u(2,1,1)n)
   = -0
 f_v(1,2,2)p: u(MCLinV(1,2,2)) + u(MCLin3(1,2,2)) - u(MCLin5(1,2,2))
   - a(v(1,2,2)p) - f(v(1,2,2)p) = -0
 f_v(1,2,2)n: - u(MCLinV(1,2,2)) - u(MCLin3(1,2,2)) + u(MCLin5(1,2,2))
   - a(v(1,2,2)n) - f(v(1,2,2)n) = -0
 f_v(2,1,2)p: u(MCLinV(2,1,2)) + u(MCLin8(2,1,2)) - u(MCLin10(2,1,2))
   - a(v(2,1,2)p) - f(v(2,1,2)p) = -0
 f_v(2,1,2)n: - u(MCLinV(2,1,2)) - u(MCLin8(2,1,2)) + u(MCLin10(2,1,2))
   - a(v(2,1,2)n) - f(v(2,1,2)n) = -0
 f_u(1,2,2)p: - u(MCLin1(1,2,2)) - u(MCLin2(1,2,2)) - u(MCLin3(1,2,2))
   + u(MCLin4(1,2,2)) + u(MCLin5(1,2,2)) - a(u(1,2,2)p) - f(u(1,2,2)p)
   = -0
 f_u(1,2,2)n: u(MCLin1(1,2,2)) + u(MCLin2(1,2,2)) + u(MCLin3(1,2,2))
   - u(MCLin4(1,2,2)) - u(MCLin5(1,2,2)) - a(u(1,2,2)n) - f(u(1,2,2)n)
   = -0
 f_u(2,1,2)p: - u(MCLin6(2,1,2)) - u(MCLin7(2,1,2)) - u(MCLin8(2,1,2))
   + u(MCLin9(2,1,2)) + u(MCLin10(2,1,2)) - a(u(2,1,2)p) - f(u(2,1,2)p)
   = -0
 f_u(2,1,2)n: u(MCLin6(2,1,2)) + u(MCLin7(2,1,2)) + u(MCLin8(2,1,2))
   - u(MCLin9(2,1,2)) - u(MCLin10(2,1,2)) - a(u(2,1,2)n) - f(u(2,1,2)n)
   = -0
 f: - 7 u(ord(0,1)) - 7 u(ord(0,2)) - 4 u(ord(1,1)) - 3 u(ord(1,2))
   - 7 u(ord(2,1)) - 6 u(ord(2,2)) + u(triangle2(0,1,0))
   + u(triangle2(0,1,1)) + u(triangle2(0,1,2)) + u(triangle2(0,2,0))
   + u(triangle2(0,2,1)) + u(triangle2(0,2,2)) + u(triangle2(1,2,0))
   + u(triangle2(1,2,1)) + u(triangle2(1,2,2)) - 3 u(MCLinV(0,1,0))
   - u(MCLinV(1,0,0)) + 36 u(MCLin3(0,1,0)) + 23 u(MCLin5(0,1,0))
   + 19 u(MCLin8(1,0,0)) + 40 u(MCLin10(1,0,0)) - 4 u(MCLinV(0,1,1))
   - 7 u(MCLinV(1,0,1)) + 25 u(MCLin3(0,1,1)) + 34 u(MCLin5(0,1,1))
   + 23 u(MCLin8(1,0,1)) + 36 u(MCLin10(1,0,1)) - 7 u(MCLinV(0,1,2))
   - 7 u(MCLinV(1,0,2)) + 22 u(MCLin3(0,1,2)) + 37 u(MCLin5(0,1,2))
   + 23 u(MCLin8(1,0,2)) + 36 u(MCLin10(1,0,2)) - 2 u(MCLinV(0,2,0))
   - u(MCLinV(2,0,0)) + 28 u(MCLin3(0,2,0)) + 30 u(MCLin5(0,2,0))
   + 27 u(MCLin8(2,0,0)) + 31 u(MCLin10(2,0,0)) - 7 u(MCLinV(0,2,1))
   - 7 u(MCLinV(2,0,1)) + 22 u(MCLin3(0,2,1)) + 36 u(MCLin5(0,2,1))
   + 22 u(MCLin8(2,0,1)) + 36 u(MCLin10(2,0,1)) - 6 u(MCLinV(0,2,2))
   - 7 u(MCLinV(2,0,2)) + 23 u(MCLin3(0,2,2)) + 35 u(MCLin5(0,2,2))
   + 22 u(MCLin8(2,0,2)) + 36 u(MCLin10(2,0,2)) - 2 u(MCLinV(1,2,0))
   - 3 u(MCLinV(2,1,0)) + 19 u(MCLin3(1,2,0)) + 40 u(MCLin5(1,2,0))
   + 35 u(MCLin8(2,1,0)) + 24 u(MCLin10(2,1,0)) - 7 u(MCLinV(1,2,1))
   - 4 u(MCLinV(2,1,1)) + 23 u(MCLin3(1,2,1)) + 36 u(MCLin5(1,2,1))
   + 25 u(MCLin8(2,1,1)) + 34 u(MCLin10(2,1,1)) - 6 u(MCLinV(1,2,2))
   - 7 u(MCLinV(2,1,2)) + 24 u(MCLin3(1,2,2)) + 35 u(MCLin5(1,2,2))
   + 22 u(MCLin8(2,1,2)) + 37 u(MCLin10(2,1,2)) - u(makespan(0))
   - 7 u(makespan(1)) - 2 u(makespan(2)) - u(cut_clique(012,1))
   - 41 u(cut_basic_best(02,0)) - 43 u(cut_two_jobs(0,2,0))
   - 105 u(cut_basic_best(012,1)) - 49 u(cut_two_jobs(0,2,1))
   - 28 u(cut_basic_plus_epsilon_best(12,1,0))
   - 49 u(cut_basic_plus_epsilon_best(02,1,1))
   - 28 u(cut_basic_plus_epsilon_best(01,1,2))
   - 273 u(cut_basic_best(012,2)) - 147 u(cut_two_jobs(0,1,2))
   - 133 u(cut_basic_plus_epsilon_best(12,2,0))
   - 133 u(cut_basic_plus_epsilon_best(02,2,1))
   - 147 u(cut_basic_plus_epsilon_best(01,2,2)) - a0 - f0 = -0
Bounds
 u(ord(0,1)) <= 0.99
 u(ord(0,2)) <= 0.99
 u(ord(1,1)) <= 0.99
 u(ord(1,2)) <= 0.99
 u(ord(2,1)) <= 0.99
 u(ord(2,2)) <= 0.99
 u(triangle2(0,1,0)) <= 0.99
 u(triangle2(0,1,1)) <= 0.99
 u(triangle2(0,1,2)) <= 0.99
 u(triangle2(0,2,0)) <= 0.99
 u(triangle2(0,2,1)) <= 0.99
 u(triangle2(0,2,2)) <= 0.99
 u(triangle2(1,2,0)) <= 0.99
 u(triangle2(1,2,1)) <= 0.99
 u(triangle2(1,2,2)) <= 0.99
 u(MCLinV(0,1,0)) <= 0.99
 u(MCLinV(1,0,0)) <= 0.99
 u(MCLin1(0,1,0)) <= 0.99
 u(MCLin2(0,1,0)) <= 0.99
 u(MCLin3(0,1,0)) <= 0.99
 u(MCLin4(0,1,0)) <= 0.99
 u(MCLin5(0,1,0)) <= 0.99
 u(MCLin6(1,0,0)) <= 0.99
 u(MCLin7(1,0,0)) <= 0.99
 u(MCLin8(1,0,0)) <= 0.99
 u(MCLin9(1,0,0)) <= 0.99
 u(MCLin10(1,0,0)) <= 0.99
 u(MCLinV(0,1,1)) <= 0.99
 u(MCLinV(1,0,1)) <= 0.99
 u(MCLin1(0,1,1)) <= 0.99
 u(MCLin2(0,1,1)) <= 0.99
 u(MCLin3(0,1,1)) <= 0.99
 u(MCLin4(0,1,1)) <= 0.99
 u(MCLin5(0,1,1)) <= 0.99
 u(MCLin6(1,0,1)) <= 0.99
 u(MCLin7(1,0,1)) <= 0.99
 u(MCLin8(1,0,1)) <= 0.99
 u(MCLin9(1,0,1)) <= 0.99
 u(MCLin10(1,0,1)) <= 0.99
 u(MCLinV(0,1,2)) <= 0.99
 u(MCLinV(1,0,2)) <= 0.99
 u(MCLin1(0,1,2)) <= 0.99
 u(MCLin2(0,1,2)) <= 0.99
 u(MCLin3(0,1,2)) <= 0.99
 u(MCLin4(0,1,2)) <= 0.99
 u(MCLin5(0,1,2)) <= 0.99
 u(MCLin6(1,0,2)) <= 0.99
 u(MCLin7(1,0,2)) <= 0.99
 u(MCLin8(1,0,2)) <= 0.99
 u(MCLin9(1,0,2)) <= 0.99
 u(MCLin10(1,0,2)) <= 0.99
 u(MCLinV(0,2,0)) <= 0.99
 u(MCLinV(2,0,0)) <= 0.99
 u(MCLin1(0,2,0)) <= 0.99
 u(MCLin2(0,2,0)) <= 0.99
 u(MCLin3(0,2,0)) <= 0.99
 u(MCLin4(0,2,0)) <= 0.99
 u(MCLin5(0,2,0)) <= 0.99
 u(MCLin6(2,0,0)) <= 0.99
 u(MCLin7(2,0,0)) <= 0.99
 u(MCLin8(2,0,0)) <= 0.99
 u(MCLin9(2,0,0)) <= 0.99
 u(MCLin10(2,0,0)) <= 0.99
 u(MCLinV(0,2,1)) <= 0.99
 u(MCLinV(2,0,1)) <= 0.99
 u(MCLin1(0,2,1)) <= 0.99
 u(MCLin2(0,2,1)) <= 0.99
 u(MCLin3(0,2,1)) <= 0.99
 u(MCLin4(0,2,1)) <= 0.99
 u(MCLin5(0,2,1)) <= 0.99
 u(MCLin6(2,0,1)) <= 0.99
 u(MCLin7(2,0,1)) <= 0.99
 u(MCLin8(2,0,1)) <= 0.99
 u(MCLin9(2,0,1)) <= 0.99
 u(MCLin10(2,0,1)) <= 0.99
 u(MCLinV(0,2,2)) <= 0.99
 u(MCLinV(2,0,2)) <= 0.99
 u(MCLin1(0,2,2)) <= 0.99
 u(MCLin2(0,2,2)) <= 0.99
 u(MCLin3(0,2,2)) <= 0.99
 u(MCLin4(0,2,2)) <= 0.99
 u(MCLin5(0,2,2)) <= 0.99
 u(MCLin6(2,0,2)) <= 0.99
 u(MCLin7(2,0,2)) <= 0.99
 u(MCLin8(2,0,2)) <= 0.99
 u(MCLin9(2,0,2)) <= 0.99
 u(MCLin10(2,0,2)) <= 0.99
 u(MCLinV(1,2,0)) <= 0.99
 u(MCLinV(2,1,0)) <= 0.99
 u(MCLin1(1,2,0)) <= 0.99
 u(MCLin2(1,2,0)) <= 0.99
 u(MCLin3(1,2,0)) <= 0.99
 u(MCLin4(1,2,0)) <= 0.99
 u(MCLin5(1,2,0)) <= 0.99
 u(MCLin6(2,1,0)) <= 0.99
 u(MCLin7(2,1,0)) <= 0.99
 u(MCLin8(2,1,0)) <= 0.99
 u(MCLin9(2,1,0)) <= 0.99
 u(MCLin10(2,1,0)) <= 0.99
 u(MCLinV(1,2,1)) <= 0.99
 u(MCLinV(2,1,1)) <= 0.99
 u(MCLin1(1,2,1)) <= 0.99
 u(MCLin2(1,2,1)) <= 0.99
 u(MCLin3(1,2,1)) <= 0.99
 u(MCLin4(1,2,1)) <= 0.99
 u(MCLin5(1,2,1)) <= 0.99
 u(MCLin6(2,1,1)) <= 0.99
 u(MCLin7(2,1,1)) <= 0.99
 u(MCLin8(2,1,1)) <= 0.99
 u(MCLin9(2,1,1)) <= 0.99
 u(MCLin10(2,1,1)) <= 0.99
 u(MCLinV(1,2,2)) <= 0.99
 u(MCLinV(2,1,2)) <= 0.99
 u(MCLin1(1,2,2)) <= 0.99
 u(MCLin2(1,2,2)) <= 0.99
 u(MCLin3(1,2,2)) <= 0.99
 u(MCLin4(1,2,2)) <= 0.99
 u(MCLin5(1,2,2)) <= 0.99
 u(MCLin6(2,1,2)) <= 0.99
 u(MCLin7(2,1,2)) <= 0.99
 u(MCLin8(2,1,2)) <= 0.99
 u(MCLin9(2,1,2)) <= 0.99
 u(MCLin10(2,1,2)) <= 0.99
 u(makespan(0)) <= 0.99
 u(makespan(1)) <= 0.99
 u(makespan(2)) <= 0.99
 u(cut_clique(012,1)) <= 0.99
 u(cut_basic_best(02,0)) <= 0.99
 u(cut_two_jobs(0,2,0)) <= 0.99
 u(cut_basic_best(012,1)) <= 0.99
 u(cut_two_jobs(0,2,1)) <= 0.99
 u(cut_basic_plus_epsilon_best(12,1,0)) <= 0.99
 u(cut_basic_plus_epsilon_best(02,1,1)) <= 0.99
 u(cut_basic_plus_epsilon_best(01,1,2)) <= 0.99
 u(cut_basic_best(012,2)) <= 0.99
 u(cut_two_jobs(0,1,2)) <= 0.99
 u(cut_basic_plus_epsilon_best(12,2,0)) <= 0.99
 u(cut_basic_plus_epsilon_best(02,2,1)) <= 0.99
 u(cut_basic_plus_epsilon_best(01,2,2)) <= 0.99
 a(C) >= -100000
 a(x(0,1)) >= -100000
 a(x(0,2)) >= -100000
 a(x(0,0)) >= -100000
 a(x(1,0)) >= -100000
 a(x(1,1)) >= -100000
 a(x(1,2)) >= -100000
 a(x(2,1)) >= -100000
 a(x(2,2)) >= -100000
 a(x(2,0)) >= -100000
 a(y(0,1,0)) >= -100000
 a(y(1,0,0)) >= -100000
 a(y(0,1,1)) >= -100000
 a(y(1,0,1)) >= -100000
 a(y(0,1,2)) >= -100000
 a(y(1,0,2)) >= -100000
 a(y(0,2,0)) >= -100000
 a(y(2,0,0)) >= -100000
 a(y(0,2,1)) >= -100000
 a(y(2,0,1)) >= -100000
 a(y(0,2,2)) >= -100000
 a(y(2,0,2)) >= -100000
 a(y(1,2,0)) >= -100000
 a(y(2,1,0)) >= -100000
 a(y(1,2,1)) >= -100000
 a(y(2,1,1)) >= -100000
 a(y(1,2,2)) >= -100000
 a(y(2,1,2)) >= -100000
 a(v(0,1,0)p) >= -100000
 a(v(0,1,0)n) >= -100000
 a(v(1,0,0)p) >= -100000
 a(v(1,0,0)n) >= -100000
 a(u(0,1,0)p) >= -100000
 a(u(0,1,0)n) >= -100000
 a(u(1,0,0)p) >= -100000
 a(u(1,0,0)n) >= -100000
 a(v(0,1,1)p) >= -100000
 a(v(0,1,1)n) >= -100000
 a(v(1,0,1)p) >= -100000
 a(v(1,0,1)n) >= -100000
 a(u(0,1,1)p) >= -100000
 a(u(0,1,1)n) >= -100000
 a(u(1,0,1)p) >= -100000
 a(u(1,0,1)n) >= -100000
 a(v(0,1,2)p) >= -100000
 a(v(0,1,2)n) >= -100000
 a(v(1,0,2)p) >= -100000
 a(v(1,0,2)n) >= -100000
 a(u(0,1,2)p) >= -100000
 a(u(0,1,2)n) >= -100000
 a(u(1,0,2)p) >= -100000
 a(u(1,0,2)n) >= -100000
 a(v(0,2,0)p) >= -100000
 a(v(0,2,0)n) >= -100000
 a(v(2,0,0)p) >= -100000
 a(v(2,0,0)n) >= -100000
 a(u(0,2,0)p) >= -100000
 a(u(0,2,0)n) >= -100000
 a(u(2,0,0)p) >= -100000
 a(u(2,0,0)n) >= -100000
 a(v(0,2,1)p) >= -100000
 a(v(0,2,1)n) >= -100000
 a(v(2,0,1)p) >= -100000
 a(v(2,0,1)n) >= -100000
 a(u(0,2,1)p) >= -100000
 a(u(0,2,1)n) >= -100000
 a(u(2,0,1)p) >= -100000
 a(u(2,0,1)n) >= -100000
 a(v(0,2,2)p) >= -100000
 a(v(0,2,2)n) >= -100000
 a(v(2,0,2)p) >= -100000
 a(v(2,0,2)n) >= -100000
 a(u(0,2,2)p) >= -100000
 a(u(0,2,2)n) >= -100000
 a(u(2,0,2)p) >= -100000
 a(u(2,0,2)n) >= -100000
 a(v(1,2,0)p) >= -100000
 a(v(1,2,0)n) >= -100000
 a(v(2,1,0)p) >= -100000
 a(v(2,1,0)n) >= -100000
 a(u(1,2,0)p) >= -100000
 a(u(1,2,0)n) >= -100000
 a(u(2,1,0)p) >= -100000
 a(u(2,1,0)n) >= -100000
 a(v(1,2,1)p) >= -100000
 a(v(1,2,1)n) >= -100000
 a(v(2,1,1)p) >= -100000
 a(v(2,1,1)n) >= -100000
 a(u(1,2,1)p) >= -100000
 a(u(1,2,1)n) >= -100000
 a(u(2,1,1)p) >= -100000
 a(u(2,1,1)n) >= -100000
 a(v(1,2,2)p) >= -100000
 a(v(1,2,2)n) >= -100000
 a(v(2,1,2)p) >= -100000
 a(v(2,1,2)n) >= -100000
 a(u(1,2,2)p) >= -100000
 a(u(1,2,2)n) >= -100000
 a(u(2,1,2)p) >= -100000
 a(u(2,1,2)n) >= -100000
 f(C) <= 0.99
 f(x(0,1)) <= 0.99
 f(x(0,2)) <= 0.99
 f(x(0,0)) <= 0.99
 f(x(1,0)) <= 0.99
 f(x(1,1)) <= 0.99
 f(x(1,2)) <= 0.99
 f(x(2,1)) <= 0.99
 f(x(2,2)) <= 0.99
 f(x(2,0)) <= 0.99
 f(y(0,1,0)) <= 0.99
 f(y(1,0,0)) <= 0.99
 f(y(0,1,1)) <= 0.99
 f(y(1,0,1)) <= 0.99
 f(y(0,1,2)) <= 0.99
 f(y(1,0,2)) <= 0.99
 f(y(0,2,0)) <= 0.99
 f(y(2,0,0)) <= 0.99
 f(y(0,2,1)) <= 0.99
 f(y(2,0,1)) <= 0.99
 f(y(0,2,2)) <= 0.99
 f(y(2,0,2)) <= 0.99
 f(y(1,2,0)) <= 0.99
 f(y(2,1,0)) <= 0.99
 f(y(1,2,1)) <= 0.99
 f(y(2,1,1)) <= 0.99
 f(y(1,2,2)) <= 0.99
 f(y(2,1,2)) <= 0.99
 f(v(0,1,0)p) <= 0.99
 f(v(0,1,0)n) <= 0.99
 f(v(1,0,0)p) <= 0.99
 f(v(1,0,0)n) <= 0.99
 f(u(0,1,0)p) <= 0.99
 f(u(0,1,0)n) <= 0.99
 f(u(1,0,0)p) <= 0.99
 f(u(1,0,0)n) <= 0.99
 f(v(0,1,1)p) <= 0.99
 f(v(0,1,1)n) <= 0.99
 f(v(1,0,1)p) <= 0.99
 f(v(1,0,1)n) <= 0.99
 f(u(0,1,1)p) <= 0.99
 f(u(0,1,1)n) <= 0.99
 f(u(1,0,1)p) <= 0.99
 f(u(1,0,1)n) <= 0.99
 f(v(0,1,2)p) <= 0.99
 f(v(0,1,2)n) <= 0.99
 f(v(1,0,2)p) <= 0.99
 f(v(1,0,2)n) <= 0.99
 f(u(0,1,2)p) <= 0.99
 f(u(0,1,2)n) <= 0.99
 f(u(1,0,2)p) <= 0.99
 f(u(1,0,2)n) <= 0.99
 f(v(0,2,0)p) <= 0.99
 f(v(0,2,0)n) <= 0.99
 f(v(2,0,0)p) <= 0.99
 f(v(2,0,0)n) <= 0.99
 f(u(0,2,0)p) <= 0.99
 f(u(0,2,0)n) <= 0.99
 f(u(2,0,0)p) <= 0.99
 f(u(2,0,0)n) <= 0.99
 f(v(0,2,1)p) <= 0.99
 f(v(0,2,1)n) <= 0.99
 f(v(2,0,1)p) <= 0.99
 f(v(2,0,1)n) <= 0.99
 f(u(0,2,1)p) <= 0.99
 f(u(0,2,1)n) <= 0.99
 f(u(2,0,1)p) <= 0.99
 f(u(2,0,1)n) <= 0.99
 f(v(0,2,2)p) <= 0.99
 f(v(0,2,2)n) <= 0.99
 f(v(2,0,2)p) <= 0.99
 f(v(2,0,2)n) <= 0.99
 f(u(0,2,2)p) <= 0.99
 f(u(0,2,2)n) <= 0.99
 f(u(2,0,2)p) <= 0.99
 f(u(2,0,2)n) <= 0.99
 f(v(1,2,0)p) <= 0.99
 f(v(1,2,0)n) <= 0.99
 f(v(2,1,0)p) <= 0.99
 f(v(2,1,0)n) <= 0.99
 f(u(1,2,0)p) <= 0.99
 f(u(1,2,0)n) <= 0.99
 f(u(2,1,0)p) <= 0.99
 f(u(2,1,0)n) <= 0.99
 f(v(1,2,1)p) <= 0.99
 f(v(1,2,1)n) <= 0.99
 f(v(2,1,1)p) <= 0.99
 f(v(2,1,1)n) <= 0.99
 f(u(1,2,1)p) <= 0.99
 f(u(1,2,1)n) <= 0.99
 f(u(2,1,1)p) <= 0.99
 f(u(2,1,1)n) <= 0.99
 f(v(1,2,2)p) <= 0.99
 f(v(1,2,2)n) <= 0.99
 f(v(2,1,2)p) <= 0.99
 f(v(2,1,2)n) <= 0.99
 f(u(1,2,2)p) <= 0.99
 f(u(1,2,2)n) <= 0.99
 f(u(2,1,2)p) <= 0.99
 f(u(2,1,2)n) <= 0.99
 a0 >= -100000
 f0 <= 0.99
Generals
 a(C) a(x(0,1)) a(x(0,2)) a(x(0,0)) a(x(1,0)) a(x(1,1)) a(x(1,2)) a(x(2,1))
 a(x(2,2)) a(x(2,0)) a(y(0,1,0)) a(y(1,0,0)) a(y(0,1,1)) a(y(1,0,1))
 a(y(0,1,2)) a(y(1,0,2)) a(y(0,2,0)) a(y(2,0,0)) a(y(0,2,1)) a(y(2,0,1))
 a(y(0,2,2)) a(y(2,0,2)) a(y(1,2,0)) a(y(2,1,0)) a(y(1,2,1)) a(y(2,1,1))
 a(y(1,2,2)) a(y(2,1,2)) a(v(0,1,0)p) a(v(0,1,0)n) a(v(1,0,0)p)
 a(v(1,0,0)n) a(u(0,1,0)p) a(u(0,1,0)n) a(u(1,0,0)p) a(u(1,0,0)n)
 a(v(0,1,1)p) a(v(0,1,1)n) a(v(1,0,1)p) a(v(1,0,1)n) a(u(0,1,1)p)
 a(u(0,1,1)n) a(u(1,0,1)p) a(u(1,0,1)n) a(v(0,1,2)p) a(v(0,1,2)n)
 a(v(1,0,2)p) a(v(1,0,2)n) a(u(0,1,2)p) a(u(0,1,2)n) a(u(1,0,2)p)
 a(u(1,0,2)n) a(v(0,2,0)p) a(v(0,2,0)n) a(v(2,0,0)p) a(v(2,0,0)n)
 a(u(0,2,0)p) a(u(0,2,0)n) a(u(2,0,0)p) a(u(2,0,0)n) a(v(0,2,1)p)
 a(v(0,2,1)n) a(v(2,0,1)p) a(v(2,0,1)n) a(u(0,2,1)p) a(u(0,2,1)n)
 a(u(2,0,1)p) a(u(2,0,1)n) a(v(0,2,2)p) a(v(0,2,2)n) a(v(2,0,2)p)
 a(v(2,0,2)n) a(u(0,2,2)p) a(u(0,2,2)n) a(u(2,0,2)p) a(u(2,0,2)n)
 a(v(1,2,0)p) a(v(1,2,0)n) a(v(2,1,0)p) a(v(2,1,0)n) a(u(1,2,0)p)
 a(u(1,2,0)n) a(u(2,1,0)p) a(u(2,1,0)n) a(v(1,2,1)p) a(v(1,2,1)n)
 a(v(2,1,1)p) a(v(2,1,1)n) a(u(1,2,1)p) a(u(1,2,1)n) a(u(2,1,1)p)
 a(u(2,1,1)n) a(v(1,2,2)p) a(v(1,2,2)n) a(v(2,1,2)p) a(v(2,1,2)n)
 a(u(1,2,2)p) a(u(1,2,2)n) a(u(2,1,2)p) a(u(2,1,2)n) a0
End
